
List of user-set options:

                                    Name   Value                used
                        file_print_level = 5                     yes
                   hessian_approximation = limited-memory        yes
                           linear_solver = mumps                 yes
                                max_iter = 4                     yes
                      nlp_scaling_method = user-scaling          yes
                             output_file = /mnt/f/MDO LAB/Super-Aerostructural-Optimizer/prove_chain_meaningful_out/IPOPT.out  yes
                             print_level = 5                     yes
                      print_user_options = yes                   yes
                                      sb = yes                   yes
                                     tol = 1e-05                 yes
This is Ipopt version 3.14.19, running with linear solver MUMPS 5.8.2.

Number of nonzeros in equality constraint Jacobian...:        0
Number of nonzeros in inequality constraint Jacobian.:       12
Number of nonzeros in Lagrangian Hessian.............:        0

Total number of variables............................:        4
                     variables with only lower bounds:        0
                variables with lower and upper bounds:        4
                     variables with only upper bounds:        0
Total number of equality constraints.................:        0
Total number of inequality constraints...............:        3
        inequality constraints with only lower bounds:        0
   inequality constraints with lower and upper bounds:        1
        inequality constraints with only upper bounds:        2

iter    objective    inf_pr   inf_du lg(mu)  ||d||  lg(rg) alpha_du alpha_pr  ls
   0  6.3309547e-02 2.55e-01 9.63e-01   0.0 0.00e+00    -  0.00e+00 0.00e+00   0
   1  6.3311403e-02 1.90e-01 7.19e+00  -0.8 2.54e-01    -  9.72e-01 1.86e-01h  1
   2  6.3283258e-02 1.70e-02 1.56e-02  -2.0 4.75e-01    -  9.99e-01 1.00e+00h  1
   3  6.3249728e-02 0.00e+00 5.79e-03  -3.5 1.03e-01    -  9.97e-01 1.00e+00h  1
   4  6.3211537e-02 0.00e+00 4.65e-04  -3.7 5.95e-01    -  9.42e-01 1.00e+00h  1

Number of Iterations....: 4

                                   (scaled)                 (unscaled)
Objective...............:   6.3211537052243069e-02    6.3211537052243069e-02
Dual infeasibility......:   4.6475428810387301e-04    4.6475428810387301e-04
Constraint violation....:   0.0000000000000000e+00    0.0000000000000000e+00
Variable bound violation:   0.0000000000000000e+00    0.0000000000000000e+00
Complementarity.........:   3.6479745307470529e-04    3.6479745307470529e-04
Overall NLP error.......:   4.6475428810387301e-04    4.6475428810387301e-04


Number of objective function evaluations             = 5
Number of objective gradient evaluations             = 5
Number of equality constraint evaluations            = 0
Number of inequality constraint evaluations          = 5
Number of equality constraint Jacobian evaluations   = 0
Number of inequality constraint Jacobian evaluations = 5
Number of Lagrangian Hessian evaluations             = 0
Total seconds in IPOPT                               = 0.792

EXIT: Maximum Number of Iterations Exceeded.
